model.lp
\ LP format - for model browsing. Use MPS format to capture full model detail.
\ Signature: 0x2538ba2861278819
Maximize
  0 q_1_1 + 0 q_1_2 + 0 q_2_1 + 0 q_4_1 + x_4_2 + 0 q_4_2
Subject To
 R0: x_1_1 >= 1
 R1: x_1_1 <= 2
 R2: x_1_2 >= 1
 R3: x_1_2 <= 2
 R4: - x_2_1 <= 0
 R5: - x_2_1 >= 0
 R6: x_2_1 >= 0
 R7: - x_2_1 >= 0
 R8: x_1_1 + x_1_2 - x_2_2 <= -1
 R9: x_1_1 + x_1_2 - x_2_2 + 5 q_2_2 >= -1
 R10: x_2_2 >= 0
 R11: - x_2_2 - 5 q_2_2 >= -5
 R12: x_1_1 + x_1_2 - x_2_3 <= -1
 R13: x_1_1 + x_1_2 - x_2_3 + 5 q_2_3 >= -1
 R14: x_2_3 >= 0
 R15: - x_2_3 - 5 q_2_3 >= -5
 R16: 2 x_1_1 - x_2_4 <= -1
 R17: 2 x_1_1 - x_2_4 + 5 q_2_4 >= -1
 R18: x_2_4 >= 0
 R19: - x_2_4 - 5 q_2_4 >= -5
 R20: x_2_1 + x_2_3 + 2 x_2_4 - x_3_1 <= 0
 R21: x_2_1 + x_2_3 + 2 x_2_4 - x_3_1 + 15 q_3_1 >= 0
 R22: x_3_1 >= 0
 R23: - x_3_1 - 15 q_3_1 >= -15
 R24: x_2_1 + x_2_2 + x_2_3 + x_2_4 - x_3_2 <= -1
 R25: x_2_1 + x_2_2 + x_2_3 + x_2_4 - x_3_2 + 16 q_3_2 >= -1
 R26: x_3_2 >= 0
 R27: - x_3_2 - 16 q_3_2 >= -16
 R28: 2 x_2_1 + x_2_2 + 2 x_2_3 + x_2_4 - x_3_3 <= -1
 R29: 2 x_2_1 + x_2_2 + 2 x_2_3 + x_2_4 - x_3_3 + 21 q_3_3 >= -1
 R30: x_3_3 >= 0
 R31: - x_3_3 - 21 q_3_3 >= -21
 R32: x_2_1 + 3 x_2_2 + x_2_3 - x_3_4 <= -1
 R33: x_2_1 + 3 x_2_2 + x_2_3 - x_3_4 + 21 q_3_4 >= -1
 R34: x_3_4 >= 0
 R35: - x_3_4 - 21 q_3_4 >= -21
 R36: x_3_1 + x_3_3 + x_3_4 - x_4_1 <= -1
 R37: x_3_1 + x_3_3 + x_3_4 - x_4_1 >= -1
 R38: 3 x_3_1 + 2 x_3_2 + x_3_3 + 4 x_3_4 - x_4_2 <= -1
 R39: 3 x_3_1 + 2 x_3_2 + x_3_3 + 4 x_3_4 - x_4_2 >= -1
Bounds
 x_1_1 free
 x_1_2 free
 x_2_1 free
 x_2_2 free
 x_2_3 free
 x_2_4 free
 x_3_1 free
 x_3_2 free
 x_3_3 free
 x_3_4 free
 x_4_1 free
 x_4_2 free
Binaries
 q_1_1 q_1_2 q_2_1 q_2_2 q_2_3 q_2_4 q_3_1 q_3_2 q_3_3 q_3_4 q_4_1 q_4_2
End
