model.sol
# Objective value = 2.75
X_1 2.75
alpha_1 -1
alpha_2 -1
